NAME : optical-integer.standard.-18159128.tour
COMMENT : Length = -18159128
TYPE : TOUR
DIMENSION : 174
TOUR_SECTION
7
15
13
24
19
22
68
72
70
71
8
9
14
63
84
82
85
57
77
20
28
35
33
36
32
29
23
21
31
34
56
64
79
62
73
83
80
78
81
58
92
95
74
89
90
75
61
67
66
69
65
60
11
16
17
30
18
12
154
145
156
157
158
155
147
142
143
141
149
153
151
152
146
150
148
144
128
45
2
39
1
37
5
40
3
52
88
51
94
140
98
139
168
172
171
170
138
130
134
133
132
137
166
160
162
163
164
119
97
103
121
48
159
174
161
136
167
122
123
124
125
126
101
129
99
165
173
127
135
169
131
100
106
110
115
102
117
120
118
112
111
108
105
104
109
107
113
114
116
49
54
86
93
96
55
87
53
50
47
44
38
6
4
41
26
25
43
46
27
76
59
91
10
42
-1
EOF
